data/solutions/recovery/degenerate/moderate/binding/degenerate_moderate_instance36/10.sol
Elapsed time: 0.05
Upper bound: 1417209462.0
Planning weighted value: 37027756009.0
C[0]=1417209462.0
C[1]=1409529302.0
C[2]=1407364490.0
C[3]=1405899760.0
C[4]=0.0
y[0]=0
y[1]=1
y[2]=2
y[3]=0
y[4]=1
y[5]=1
y[6]=2
y[7]=1
y[8]=1
y[9]=0
y[10]=3
y[11]=3
y[12]=1
y[13]=0
y[14]=3
y[15]=3
y[16]=2
y[17]=0
y[18]=2
y[19]=0
y[20]=2
y[21]=1
y[22]=3
y[23]=0
y[24]=2
y[25]=1
y[26]=0
y[27]=2
y[28]=1
y[29]=3
y[30]=2
y[31]=3
y[32]=2
y[33]=0
y[34]=2
y[35]=2
y[36]=3
y[37]=1
y[38]=1
y[39]=3
y[40]=0
y[41]=2
y[42]=2
y[43]=1
y[44]=1
y[45]=0
